;test regex ^(?:(?:31(\/|-|\.)(?:0?[13578]|1[02]|(?:Jan|Mar|May|Jul|Aug|Oct|Dec)))\1|(?:(?:29|30)(\/|-|\.)(?:0?[1,3-9]|1[0-2]|(?:Jan|Mar|Apr|May|Jun|Jul|Aug|Sep|Oct|Nov|Dec))\2))(?:(?:1[6-9]|[2-9]\d)?\d{2})$|^(?:29(\/|-|\.)(?:0?2|(?:Feb))\3(?:(?:(?:1[6-9]|[2-9]\d)?(?:0[48]|[2468][048]|[13579][26])|(?:(?:16|[2468][048]|[3579][26])00))))$|^(?:0?[1-9]|1\d|2[0-8])(\/|-|\.)(?:(?:0?[1-9]|(?:Jan|Feb|Mar|Apr|May|Jun|Jul|Aug|Sep))|(?:1[0-2]|(?:Oct|Nov|Dec)))\4(?:(?:1[6-9]|[2-9]\d)?\d{2})$
(declare-const X String)
(assert (str.in_re X (re.union (re.union (re.++ (re.++ (str.to_re "") (re.++ (re.union (re.++ (re.++ (str.to_re "31") (re.++ (re.union (re.union (str.to_re "/") (str.to_re "-")) (str.to_re ".")) (re.union (re.union (re.++ (re.opt (str.to_re "0")) (str.to_re "13578")) (re.++ (str.to_re "1") (str.to_re "02"))) (re.union (re.union (re.union (re.union (re.union (re.union (re.++ (str.to_re "J") (re.++ (str.to_re "a") (str.to_re "n"))) (re.++ (str.to_re "M") (re.++ (str.to_re "a") (str.to_re "r")))) (re.++ (str.to_re "M") (re.++ (str.to_re "a") (str.to_re "y")))) (re.++ (str.to_re "J") (re.++ (str.to_re "u") (str.to_re "l")))) (re.++ (str.to_re "A") (re.++ (str.to_re "u") (str.to_re "g")))) (re.++ (str.to_re "O") (re.++ (str.to_re "c") (str.to_re "t")))) (re.++ (str.to_re "D") (re.++ (str.to_re "e") (str.to_re "c"))))))) (_ re.reference 1)) (re.++ (re.union (str.to_re "29") (str.to_re "30")) (re.++ (re.union (re.union (str.to_re "/") (str.to_re "-")) (str.to_re ".")) (re.++ (re.union (re.union (re.++ (re.opt (str.to_re "0")) (re.union (str.to_re "1") (re.union (str.to_re ",") (re.range "3" "9")))) (re.++ (str.to_re "1") (re.range "0" "2"))) (re.union (re.union (re.union (re.union (re.union (re.union (re.union (re.union (re.union (re.union (re.++ (str.to_re "J") (re.++ (str.to_re "a") (str.to_re "n"))) (re.++ (str.to_re "M") (re.++ (str.to_re "a") (str.to_re "r")))) (re.++ (str.to_re "A") (re.++ (str.to_re "p") (str.to_re "r")))) (re.++ (str.to_re "M") (re.++ (str.to_re "a") (str.to_re "y")))) (re.++ (str.to_re "J") (re.++ (str.to_re "u") (str.to_re "n")))) (re.++ (str.to_re "J") (re.++ (str.to_re "u") (str.to_re "l")))) (re.++ (str.to_re "A") (re.++ (str.to_re "u") (str.to_re "g")))) (re.++ (str.to_re "S") (re.++ (str.to_re "e") (str.to_re "p")))) (re.++ (str.to_re "O") (re.++ (str.to_re "c") (str.to_re "t")))) (re.++ (str.to_re "N") (re.++ (str.to_re "o") (str.to_re "v")))) (re.++ (str.to_re "D") (re.++ (str.to_re "e") (str.to_re "c"))))) (_ re.reference 2))))) (re.++ (re.opt (re.union (re.++ (str.to_re "1") (re.range "6" "9")) (re.++ (re.range "2" "9") (re.range "0" "9")))) ((_ re.loop 2 2) (re.range "0" "9"))))) (str.to_re "")) (re.++ (re.++ (str.to_re "") (re.++ (str.to_re "29") (re.++ (re.union (re.union (str.to_re "/") (str.to_re "-")) (str.to_re ".")) (re.++ (re.union (re.++ (re.opt (str.to_re "0")) (str.to_re "2")) (re.++ (str.to_re "F") (re.++ (str.to_re "e") (str.to_re "b")))) (re.++ (_ re.reference 3) (re.union (re.++ (re.opt (re.union (re.++ (str.to_re "1") (re.range "6" "9")) (re.++ (re.range "2" "9") (re.range "0" "9")))) (re.union (re.union (re.++ (str.to_re "0") (str.to_re "48")) (re.++ (str.to_re "2468") (str.to_re "048"))) (re.++ (str.to_re "13579") (str.to_re "26")))) (re.++ (re.union (re.union (str.to_re "16") (re.++ (str.to_re "2468") (str.to_re "048"))) (re.++ (str.to_re "3579") (str.to_re "26"))) (str.to_re "00")))))))) (str.to_re ""))) (re.++ (re.++ (str.to_re "") (re.++ (re.union (re.union (re.++ (re.opt (str.to_re "0")) (re.range "1" "9")) (re.++ (str.to_re "1") (re.range "0" "9"))) (re.++ (str.to_re "2") (re.range "0" "8"))) (re.++ (re.union (re.union (str.to_re "/") (str.to_re "-")) (str.to_re ".")) (re.++ (re.union (re.union (re.++ (re.opt (str.to_re "0")) (re.range "1" "9")) (re.union (re.union (re.union (re.union (re.union (re.union (re.union (re.union (re.++ (str.to_re "J") (re.++ (str.to_re "a") (str.to_re "n"))) (re.++ (str.to_re "F") (re.++ (str.to_re "e") (str.to_re "b")))) (re.++ (str.to_re "M") (re.++ (str.to_re "a") (str.to_re "r")))) (re.++ (str.to_re "A") (re.++ (str.to_re "p") (str.to_re "r")))) (re.++ (str.to_re "M") (re.++ (str.to_re "a") (str.to_re "y")))) (re.++ (str.to_re "J") (re.++ (str.to_re "u") (str.to_re "n")))) (re.++ (str.to_re "J") (re.++ (str.to_re "u") (str.to_re "l")))) (re.++ (str.to_re "A") (re.++ (str.to_re "u") (str.to_re "g")))) (re.++ (str.to_re "S") (re.++ (str.to_re "e") (str.to_re "p"))))) (re.union (re.++ (str.to_re "1") (re.range "0" "2")) (re.union (re.union (re.++ (str.to_re "O") (re.++ (str.to_re "c") (str.to_re "t"))) (re.++ (str.to_re "N") (re.++ (str.to_re "o") (str.to_re "v")))) (re.++ (str.to_re "D") (re.++ (str.to_re "e") (str.to_re "c")))))) (re.++ (_ re.reference 4) (re.++ (re.opt (re.union (re.++ (str.to_re "1") (re.range "6" "9")) (re.++ (re.range "2" "9") (re.range "0" "9")))) ((_ re.loop 2 2) (re.range "0" "9")))))))) (str.to_re "")))))
; sanitize danger characters:  < > ' " &
(assert (not (str.in_re X (re.++ re.all (re.union (str.to_re "\u{3c}") (str.to_re "\u{3e}") (str.to_re "\u{27}") (str.to_re "\u{22}") (str.to_re "\u{26}")) re.all))))
(assert (< 9 (str.len X)))
(check-sat)
(get-model)